12 16 9 10
5 7 11 15 20 16 20 7 6 9 12 14 17 3 20 16 
3.42 6.46 4.86 7.36 6.41 0.02 2.64 2.3 0.83 1.31 0.7 7.26 5.67 7.6 4.78 0.65 
1.45 5.53 2.52 5.41 1.51 6.93 5.8 4 4.45 5.45 0.08 4.18 6.79 3.22 1.08 1.32 
1.8 6.22 3.13 4.47 4.82 5.61 7.39 5.89 6.88 4.04 5.73 3.93 4.98 7.61 5.9 4.42 
7 0.11 3.21 5.12 7.01 0.24 1.56 1.91 0.58 6.45 4.01 0.01 6.75 6.31 0.37 2.2 
4.47 3.47 7.85 5.29 0.39 5.89 4.57 1.73 0.11 7.92 2.84 3.48 0.13 5.55 5.18 3.49 
4.36 2.21 3.58 6.39 7.83 1.36 3.8 6.39 0.46 0.62 4.86 6.74 3.85 6.93 2.6 4.22 
6.1 4.73 6.7 2.55 0.2 1.17 7.3 2.21 0.47 0.72 4.34 7.89 2.69 1.49 3.86 0.02 
3.12 7.59 6.99 5.39 1.96 7.73 6.57 4.72 6.06 1.62 4.25 1.24 3.83 6.58 1.47 1.75 
3.73 3.33 1.12 7.28 4.83 3.43 0.76 4.79 4.47 1.87 7.9 7.54 6.31 7.62 7.95 1.18 
4 4 4 4 4 4 4 4 4 4 4 4 4 4 4 4 
6.28 2.34 5.24 4.39 6.23 7.22 2.58 7.89 1.58 2.2 3.72 7.65 0.08 7.15 5.33 7.13 
2.97 0.78 3.61 3.73 6.67 3.79 5.52 4.18 7.21 5.05 0.48 6.17 7.22 2.31 5.84 4.65 
1 1 1 1 1 1 1 1 1 1 1 1 1 1 1 1 
1 1 1 1 1 1 1 1 1 1 1 1 1 1 1 1 
1 1 1 1 1 1 1 1 1 1 1 1 1 1 1 1 
1 1 1 1 1 1 1 1 1 1 1 1 1 1 1 1 
1 1 1 1 1 1 1 1 1 1 1 1 1 1 1 1 
1 1 1 1 1 1 1 1 1 1 1 1 1 1 1 1 
1 1 1 1 1 1 1 1 1 1 1 1 1 1 1 1 
1 1 1 1 1 1 1 1 1 1 1 1 1 1 1 1 
1 1 1 1 1 1 1 1 1 1 1 1 1 1 1 1 
1 1 1 1 1 1 1 1 1 1 1 1 1 1 1 1 
1 1 1 1 1 1 1 1 1 1 1 1 1 1 1 1 
1 1 1 1 1 1 1 1 1 1 1 1 1 1 1 1 
0.01 0.01 0.01 0.01 0.01 0.01 0.01 0.01 0.01 0.01 0.01 0.01 0.01 0.01 0.01 0.01 
0.02 0.02 0.02 0.02 0.02 0.02 0.02 0.02 0.02 0.02 0.02 0.02 0.02 0.02 0.02 0.02 
0.03 0.03 0.03 0.03 0.03 0.03 0.03 0.03 0.03 0.03 0.03 0.03 0.03 0.03 0.03 0.03 
0.04 0.04 0.04 0.04 0.04 0.04 0.04 0.04 0.04 0.04 0.04 0.04 0.04 0.04 0.04 0.04 
0.05 0.05 0.05 0.05 0.05 0.05 0.05 0.05 0.05 0.05 0.05 0.05 0.05 0.05 0.05 0.05 
0.06 0.06 0.06 0.06 0.06 0.06 0.06 0.06 0.06 0.06 0.06 0.06 0.06 0.06 0.06 0.06 
0.07 0.07 0.07 0.07 0.07 0.07 0.07 0.07 0.07 0.07 0.07 0.07 0.07 0.07 0.07 0.07 
0.08 0.08 0.08 0.08 0.08 0.08 0.08 0.08 0.08 0.08 0.08 0.08 0.08 0.08 0.08 0.08 
0.09 0.09 0.09 0.09 0.09 0.09 0.09 0.09 0.09 0.09 0.09 0.09 0.09 0.09 0.09 0.09 
0.1 0.1 0.1 0.1 0.1 0.1 0.1 0.1 0.1 0.1 0.1 0.1 0.1 0.1 0.1 0.1 
0.5 0.5 0.5 0.5 0.5 0.5 0.5 0.5 0.5 0.5 0.5 0.5 0.5 0.5 0.5 0.5 
1 1 1 1 1 1 1 1 1 1 1 1 1 1 1 1 
